c Reduced graph for GEOM30b generated by Cyril Grelier
p edge 30 81
e 1 3
e 1 4
e 1 6
e 1 7
e 1 10
e 1 11
e 1 12
e 1 13
e 1 17
e 1 20
e 2 9
e 2 10
e 2 13
e 2 14
e 2 15
e 2 23
e 2 24
e 2 29
e 3 4
e 3 6
e 3 7
e 3 12
e 3 17
e 3 19
e 3 20
e 4 6
e 4 7
e 4 8
e 4 10
e 4 13
e 5 8
e 5 14
e 5 18
e 5 21
e 5 22
e 5 24
e 5 27
e 6 7
e 6 12
e 6 19
e 6 28
e 7 8
e 7 19
e 7 26
e 8 18
e 8 22
e 8 26
e 9 10
e 9 11
e 9 13
e 9 23
e 9 25
e 10 11
e 10 13
e 11 13
e 11 16
e 11 25
e 12 17
e 12 19
e 12 20
e 14 15
e 14 21
e 14 23
e 14 24
e 15 21
e 15 23
e 15 24
e 16 17
e 16 20
e 16 25
e 16 30
e 17 20
e 18 21
e 18 22
e 18 27
e 19 28
e 21 24
e 22 26
e 22 27
e 23 29
e 25 30
